Route #1: 60 50 16 41 2 38 61 42 45
Route #2: 49 4 3 36 35 37 30
Route #3: 28 54 11 63 39 51 17
Route #4: 23 48 57 55 25 53
Route #5: 15 22 9 14 27 43
Route #6: 56 44 10 52 8 21
Route #7: 34 31 26 46 64 6 47
Route #8: 62 7 1 12 13 24 19 18 33
Route #9: 29 59 40 32 58 20 5
cost 1335.855224609375